Minimize
L
Subject To
x0,5 + x0,6 + x0,7 + x0,8 + x0,9 + x0,10 + x0,11 = 1
6 x0,5 - L <= 0
7 x0,6 - L <= 0
8 x0,7 - L <= 0
9 x0,8 - L <= 0
10 x0,9 - L <= 0
11 x0,10 - L <= 0
12 x0,11 - L <= 0
x1,5 + x1,6 + x1,7 + x1,8 + x1,9 + x1,10 + x1,11 = 1
6 x1,5 - L <= 0
7 x1,6 - L <= 0
8 x1,7 - L <= 0
9 x1,8 - L <= 0
10 x1,9 - L <= 0
11 x1,10 - L <= 0
12 x1,11 - L <= 0
x2,3 + x2,4 + x2,5 + x2,6 + x2,7 + x2,8 + x2,9 + x2,10 + x2,11 = 1
4 x2,3 - L <= 0
5 x2,4 - L <= 0
6 x2,5 - L <= 0
7 x2,6 - L <= 0
8 x2,7 - L <= 0
9 x2,8 - L <= 0
10 x2,9 - L <= 0
11 x2,10 - L <= 0
12 x2,11 - L <= 0
x3,2 + x3,3 + x3,4 + x3,5 + x3,6 + x3,7 + x3,8 + x3,9 + x3,10 + x3,11 = 1
2 x3,2 - L <= 0
3 x3,3 - L <= 0
4 x3,4 - L <= 0
5 x3,5 - L <= 0
6 x3,6 - L <= 0
7 x3,7 - L <= 0
8 x3,8 - L <= 0
9 x3,9 - L <= 0
10 x3,10 - L <= 0
11 x3,11 - L <= 0
x4,1 + x4,2 + x4,3 + x4,4 + x4,5 + x4,6 + x4,7 + x4,8 + x4,9 + x4,10 + x4,11 = 1
1 x4,1 - L <= 0
2 x4,2 - L <= 0
3 x4,3 - L <= 0
4 x4,4 - L <= 0
5 x4,5 - L <= 0
6 x4,6 - L <= 0
7 x4,7 - L <= 0
8 x4,8 - L <= 0
9 x4,9 - L <= 0
10 x4,10 - L <= 0
11 x4,11 - L <= 0
x5,4 + x5,5 + x5,6 + x5,7 + x5,8 + x5,9 + x5,10 + x5,11 = 1
5 x5,4 - L <= 0
6 x5,5 - L <= 0
7 x5,6 - L <= 0
8 x5,7 - L <= 0
9 x5,8 - L <= 0
10 x5,9 - L <= 0
11 x5,10 - L <= 0
12 x5,11 - L <= 0
x6,2 + x6,3 + x6,4 + x6,5 + x6,6 + x6,7 + x6,8 + x6,9 + x6,10 + x6,11 = 1
3 x6,2 - L <= 0
4 x6,3 - L <= 0
5 x6,4 - L <= 0
6 x6,5 - L <= 0
7 x6,6 - L <= 0
8 x6,7 - L <= 0
9 x6,8 - L <= 0
10 x6,9 - L <= 0
11 x6,10 - L <= 0
12 x6,11 - L <= 0
x7,2 + x7,3 + x7,4 + x7,5 + x7,6 + x7,7 + x7,8 + x7,9 + x7,10 + x7,11 = 1
3 x7,2 - L <= 0
4 x7,3 - L <= 0
5 x7,4 - L <= 0
6 x7,5 - L <= 0
7 x7,6 - L <= 0
8 x7,7 - L <= 0
9 x7,8 - L <= 0
10 x7,9 - L <= 0
11 x7,10 - L <= 0
12 x7,11 - L <= 0
x8,1 + x8,2 + x8,3 + x8,4 + x8,5 + x8,6 + x8,7 + x8,8 + x8,9 + x8,10 + x8,11 = 1
1 x8,1 - L <= 0
2 x8,2 - L <= 0
3 x8,3 - L <= 0
4 x8,4 - L <= 0
5 x8,5 - L <= 0
6 x8,6 - L <= 0
7 x8,7 - L <= 0
8 x8,8 - L <= 0
9 x8,9 - L <= 0
10 x8,10 - L <= 0
11 x8,11 - L <= 0
x9,2 + x9,3 + x9,4 + x9,5 + x9,6 + x9,7 + x9,8 + x9,9 + x9,10 + x9,11 = 1
2 x9,2 - L <= 0
3 x9,3 - L <= 0
4 x9,4 - L <= 0
5 x9,5 - L <= 0
6 x9,6 - L <= 0
7 x9,7 - L <= 0
8 x9,8 - L <= 0
9 x9,9 - L <= 0
10 x9,10 - L <= 0
11 x9,11 - L <= 0
x10,1 + x10,2 + x10,3 + x10,4 + x10,5 + x10,6 + x10,7 + x10,8 + x10,9 + x10,10 + x10,11 = 1
1 x10,1 - L <= 0
2 x10,2 - L <= 0
3 x10,3 - L <= 0
4 x10,4 - L <= 0
5 x10,5 - L <= 0
6 x10,6 - L <= 0
7 x10,7 - L <= 0
8 x10,8 - L <= 0
9 x10,9 - L <= 0
10 x10,10 - L <= 0
11 x10,11 - L <= 0
x4,1 + x8,1 + x10,1 <= 1
x3,2 + x4,2 + x8,2 + x9,2 + x10,2 <= 1
x6,2 + x6,1 + x7,2 + x7,1 <= 2
x3,3 + x4,3 + x8,3 + x9,3 + x10,3 <= 1
x2,3 + x2,2 + x6,3 + x6,2 + x7,3 + x7,2 <= 2
x3,4 + x4,4 + x8,4 + x9,4 + x10,4 <= 1
x2,4 + x2,3 + x5,4 + x5,3 + x6,4 + x6,3 + x7,4 + x7,3 <= 2
x3,5 + x4,5 + x8,5 + x9,5 + x10,5 <= 1
x0,5 + x0,4 + x1,5 + x1,4 + x2,5 + x2,4 + x5,5 + x5,4 + x6,5 + x6,4 + x7,5 + x7,4 <= 2
x3,6 + x4,6 + x8,6 + x9,6 + x10,6 <= 1
x0,6 + x0,5 + x1,6 + x1,5 + x2,6 + x2,5 + x5,6 + x5,5 + x6,6 + x6,5 + x7,6 + x7,5 <= 2
x3,7 + x4,7 + x8,7 + x9,7 + x10,7 <= 1
x0,7 + x0,6 + x1,7 + x1,6 + x2,7 + x2,6 + x5,7 + x5,6 + x6,7 + x6,6 + x7,7 + x7,6 <= 2
x3,8 + x4,8 + x8,8 + x9,8 + x10,8 <= 1
x0,8 + x0,7 + x1,8 + x1,7 + x2,8 + x2,7 + x5,8 + x5,7 + x6,8 + x6,7 + x7,8 + x7,7 <= 2
x3,9 + x4,9 + x8,9 + x9,9 + x10,9 <= 1
x0,9 + x0,8 + x1,9 + x1,8 + x2,9 + x2,8 + x5,9 + x5,8 + x6,9 + x6,8 + x7,9 + x7,8 <= 2
x3,10 + x4,10 + x8,10 + x9,10 + x10,10 <= 1
x0,10 + x0,9 + x1,10 + x1,9 + x2,10 + x2,9 + x5,10 + x5,9 + x6,10 + x6,9 + x7,10 + x7,9 <= 2
x3,11 + x4,11 + x8,11 + x9,11 + x10,11 <= 1
x0,11 + x0,10 + x1,11 + x1,10 + x2,11 + x2,10 + x5,11 + x5,10 + x6,11 + x6,10 + x7,11 + x7,10 <= 2
3 x2,3 + 4 x2,4 + 5 x2,5 + 6 x2,6 + 7 x2,7 + 8 x2,8 + 9 x2,9 + 10 x2,10 + 11 x2,11 - 5 x0,5 - 6 x0,6 - 7 x0,7 - 8 x0,8 - 9 x0,9 - 10 x0,10 - 11 x0,11 <= -2
3 x2,3 + 4 x2,4 + 5 x2,5 + 6 x2,6 + 7 x2,7 + 8 x2,8 + 9 x2,9 + 10 x2,10 + 11 x2,11 - 5 x1,5 - 6 x1,6 - 7 x1,7 - 8 x1,8 - 9 x1,9 - 10 x1,10 - 11 x1,11 <= -2
2 x3,2 + 3 x3,3 + 4 x3,4 + 5 x3,5 + 6 x3,6 + 7 x3,7 + 8 x3,8 + 9 x3,9 + 10 x3,10 + 11 x3,11 - 3 x2,3 - 4 x2,4 - 5 x2,5 - 6 x2,6 - 7 x2,7 - 8 x2,8 - 9 x2,9 - 10 x2,10 - 11 x2,11 <= -1
1 x4,1 + 2 x4,2 + 3 x4,3 + 4 x4,4 + 5 x4,5 + 6 x4,6 + 7 x4,7 + 8 x4,8 + 9 x4,9 + 10 x4,10 + 11 x4,11 - 2 x3,2 - 3 x3,3 - 4 x3,4 - 5 x3,5 - 6 x3,6 - 7 x3,7 - 8 x3,8 - 9 x3,9 - 10 x3,10 - 11 x3,11 <= -1
1 x4,1 + 2 x4,2 + 3 x4,3 + 4 x4,4 + 5 x4,5 + 6 x4,6 + 7 x4,7 + 8 x4,8 + 9 x4,9 + 10 x4,10 + 11 x4,11 - 2 x6,2 - 3 x6,3 - 4 x6,4 - 5 x6,5 - 6 x6,6 - 7 x6,7 - 8 x6,8 - 9 x6,9 - 10 x6,10 - 11 x6,11 <= -1
2 x6,2 + 3 x6,3 + 4 x6,4 + 5 x6,5 + 6 x6,6 + 7 x6,7 + 8 x6,8 + 9 x6,9 + 10 x6,10 + 11 x6,11 - 4 x5,4 - 5 x5,5 - 6 x5,6 - 7 x5,7 - 8 x5,8 - 9 x5,9 - 10 x5,10 - 11 x5,11 <= -2
1 x8,1 + 2 x8,2 + 3 x8,3 + 4 x8,4 + 5 x8,5 + 6 x8,6 + 7 x8,7 + 8 x8,8 + 9 x8,9 + 10 x8,10 + 11 x8,11 - 2 x7,2 - 3 x7,3 - 4 x7,4 - 5 x7,5 - 6 x7,6 - 7 x7,7 - 8 x7,8 - 9 x7,9 - 10 x7,10 - 11 x7,11 <= -1
1 x10,1 + 2 x10,2 + 3 x10,3 + 4 x10,4 + 5 x10,5 + 6 x10,6 + 7 x10,7 + 8 x10,8 + 9 x10,9 + 10 x10,10 + 11 x10,11 - 2 x9,2 - 3 x9,3 - 4 x9,4 - 5 x9,5 - 6 x9,6 - 7 x9,7 - 8 x9,8 - 9 x9,9 - 10 x9,10 - 11 x9,11 <= -1
Bounds
0 <= x0,5 <= 1
0 <= x0,6 <= 1
0 <= x0,7 <= 1
0 <= x0,8 <= 1
0 <= x0,9 <= 1
0 <= x0,10 <= 1
0 <= x0,11 <= 1
0 <= x1,5 <= 1
0 <= x1,6 <= 1
0 <= x1,7 <= 1
0 <= x1,8 <= 1
0 <= x1,9 <= 1
0 <= x1,10 <= 1
0 <= x1,11 <= 1
0 <= x2,3 <= 1
0 <= x2,4 <= 1
0 <= x2,5 <= 1
0 <= x2,6 <= 1
0 <= x2,7 <= 1
0 <= x2,8 <= 1
0 <= x2,9 <= 1
0 <= x2,10 <= 1
0 <= x2,11 <= 1
0 <= x3,2 <= 1
0 <= x3,3 <= 1
0 <= x3,4 <= 1
0 <= x3,5 <= 1
0 <= x3,6 <= 1
0 <= x3,7 <= 1
0 <= x3,8 <= 1
0 <= x3,9 <= 1
0 <= x3,10 <= 1
0 <= x3,11 <= 1
0 <= x4,1 <= 1
0 <= x4,2 <= 1
0 <= x4,3 <= 1
0 <= x4,4 <= 1
0 <= x4,5 <= 1
0 <= x4,6 <= 1
0 <= x4,7 <= 1
0 <= x4,8 <= 1
0 <= x4,9 <= 1
0 <= x4,10 <= 1
0 <= x4,11 <= 1
0 <= x5,4 <= 1
0 <= x5,5 <= 1
0 <= x5,6 <= 1
0 <= x5,7 <= 1
0 <= x5,8 <= 1
0 <= x5,9 <= 1
0 <= x5,10 <= 1
0 <= x5,11 <= 1
0 <= x6,2 <= 1
0 <= x6,3 <= 1
0 <= x6,4 <= 1
0 <= x6,5 <= 1
0 <= x6,6 <= 1
0 <= x6,7 <= 1
0 <= x6,8 <= 1
0 <= x6,9 <= 1
0 <= x6,10 <= 1
0 <= x6,11 <= 1
0 <= x7,2 <= 1
0 <= x7,3 <= 1
0 <= x7,4 <= 1
0 <= x7,5 <= 1
0 <= x7,6 <= 1
0 <= x7,7 <= 1
0 <= x7,8 <= 1
0 <= x7,9 <= 1
0 <= x7,10 <= 1
0 <= x7,11 <= 1
0 <= x8,1 <= 1
0 <= x8,2 <= 1
0 <= x8,3 <= 1
0 <= x8,4 <= 1
0 <= x8,5 <= 1
0 <= x8,6 <= 1
0 <= x8,7 <= 1
0 <= x8,8 <= 1
0 <= x8,9 <= 1
0 <= x8,10 <= 1
0 <= x8,11 <= 1
0 <= x9,2 <= 1
0 <= x9,3 <= 1
0 <= x9,4 <= 1
0 <= x9,5 <= 1
0 <= x9,6 <= 1
0 <= x9,7 <= 1
0 <= x9,8 <= 1
0 <= x9,9 <= 1
0 <= x9,10 <= 1
0 <= x9,11 <= 1
0 <= x10,1 <= 1
0 <= x10,2 <= 1
0 <= x10,3 <= 1
0 <= x10,4 <= 1
0 <= x10,5 <= 1
0 <= x10,6 <= 1
0 <= x10,7 <= 1
0 <= x10,8 <= 1
0 <= x10,9 <= 1
0 <= x10,10 <= 1
0 <= x10,11 <= 1
L >= 1
Generals
x0,5
x0,6
x0,7
x0,8
x0,9
x0,10
x0,11
x1,5
x1,6
x1,7
x1,8
x1,9
x1,10
x1,11
x2,3
x2,4
x2,5
x2,6
x2,7
x2,8
x2,9
x2,10
x2,11
x3,2
x3,3
x3,4
x3,5
x3,6
x3,7
x3,8
x3,9
x3,10
x3,11
x4,1
x4,2
x4,3
x4,4
x4,5
x4,6
x4,7
x4,8
x4,9
x4,10
x4,11
x5,4
x5,5
x5,6
x5,7
x5,8
x5,9
x5,10
x5,11
x6,2
x6,3
x6,4
x6,5
x6,6
x6,7
x6,8
x6,9
x6,10
x6,11
x7,2
x7,3
x7,4
x7,5
x7,6
x7,7
x7,8
x7,9
x7,10
x7,11
x8,1
x8,2
x8,3
x8,4
x8,5
x8,6
x8,7
x8,8
x8,9
x8,10
x8,11
x9,2
x9,3
x9,4
x9,5
x9,6
x9,7
x9,8
x9,9
x9,10
x9,11
x10,1
x10,2
x10,3
x10,4
x10,5
x10,6
x10,7
x10,8
x10,9
x10,10
x10,11
L
End
